NAME          MPSDATA
ROWS
 L  C0      
 L  C1      
 N  MINIMIZE
COLUMNS
    x0      C1        1.000000000000000   C0        -11.000000000000000
    x0      MINIMIZE  11.000000000000000
    x1      C1        10.000000000000000   C0        13.000000000000000
    x1      MINIMIZE  -13.100000000000000
RHS
    RHS     C0        -10.000000000000000   C1        90.000000000000000
BOUNDS
ENDATA
